p cnf 8 27
2 0
-7 2 -1 6 0
-7 -4 4 0
3 0
1 5 -1 -2 0
-5 -4 -3 7 0
2 5 0
1 6 -1 0
-3 0
-6 4 6 0
7 0
-2 0
-8 -3 6 0
8 -2 7 0
-2 0
2 -4 0
1 -2 0
-8 -7 -6 5 0
8 -7 4 0
8 1 2 7 0
8 1 -6 -5 0
3 -3 7 0
3 -5 -3 0
-5 -2 0
4 -1 -2 0
-7 0
8 0
